(set-info :smt-lib-version 2.7)
(set-logic QF_SLIA)
(set-info :source |
Generated by: Mikhail Starchak
Generated on: 2025-09-25
Application: Linear theory of string length, string-to-number conversion, and regular constraints
Target solver: Chrobelias
Example 2 (in decimal) from 
Murphy Berzish, Joel D. Day, Vijay Ganesh, Mitja Kulczynski, Florin Manea, Federico Mora, Dirk Nowotka. 2023.
Towards more efficient methods for solving regular-expression heavy string constraints.
Theoretical Computer Science, Volume 943, 2023, 50-72.
https://doi.org/10.1016/j.tcs.2022.12.009
|)
(set-info :license "https://img.shields.io/badge/license-MIT-blue")
(set-info :category "crafted")
(set-info :status sat)

(declare-fun x () String)
(declare-fun y () String)

(assert (str.in.re x (re.* (str.to.re "9"))))
(assert (= 9999 (str.to.int x)))
(assert (<= 3 (str.len x)))
(check-sat)
(get-model)

(exit)